 &CONTROL
    pseudo_dir = '.'
    calculation = 'bands'
 /

 &SYSTEM
    ibrav = 1
    A = 6.41414
    nat = 5
    ntyp = 3
    ecutwfc = 40.0
    nbnd = 28
 /

 &ELECTRONS
 /

ATOMIC_SPECIES
 Cs 132.905 Cs.pbe-spn-rrkjus_psl.1.0.0.UPF 
 Pb 207.200 Pb.pbe-dn-rrkjus_psl.1.0.0.UPF
  I 126.904 I.pbe-n-rrkjus_psl.1.0.0.UPF

ATOMIC_POSITIONS crystal
Cs 0.500000 0.500000 0.500000 
Pb 0.000000 0.000000 0.000000 
I  0.000000 0.000000 0.500000 
I  0.000000 0.500000 0.000000 
I  0.500000 0.000000 0.000000 

#Γ—X—M—Γ—R—X
K_POINTS crystal_b
6
0.0000000000	0.0000000000	0.0000000000 20
0.0000000000	0.5000000000	0.0000000000 20
0.5000000000	0.5000000000	0.0000000000 20
0.0000000000	0.0000000000	0.0000000000 20
0.5000000000	0.5000000000	0.5000000000 20
0.5000000000	0.0000000000	0.0000000000 20
